NAME: mitra2008_20
COMMENT: 56
VEHICLE: 3
TIME: 1
DIMENSION: 9
CAPACITY: 1
DELIVERY_SECTION
0 0 0
1 1 0.2
2 1 0.1
3 2 0.2
4 2 0.2
5 3 0.2
6 3 0.1
7 4 0.2
8 4 0.2
9 5 0.2
10 6 0.2
11 6 0.2
12 6 0.1
13 7 0.2
14 7 0.1
15 8 0.2
PICKUP_SECTION
0 0 0
1 1 0.2
2 1 0.1
3 2 0.2
4 2 0.2
5 3 0.2
6 3 0.2
7 4 0.2
8 4 0.2
9 4 0.1
10 5 0.2
11 6 0.2
12 6 0.2
13 7 0.2
14 7 0.1
15 8 0.1
NODE_SECTION
DISTANCE_SECTION
2 7 6 8 6 9 2 7
8 5 8 7 11 1 7
6 3 12 3 7 14
4 12 9 4 13
14 6 7 15
14 8 3
10 16
8
DEPOT_SECTION
0
EOF